NAME : instances/clustered-mixed-tsp/instance-14.tsp
COMMENT : No Comment
TYPE : TSP
DIMENSION: 48
EDGE_WEIGHT_TYPE : EUC_2D
NODE_COORD_SECTION
1 1524 26 
2 1655 1566 
3 688 1520 
4 1571 239 
5 1723 1909 
6 1373 1865 
7 870 1340 
8 474 1858 
9 446 1035 
10 246 850 
11 772 245 
12 1476 1728 
13 1474 156 
14 1622 150 
15 1651 1127 
16 1493 72 
17 717 1563 
18 1108 832 
19 1530 1924 
20 1333 784 
21 994 1903 
22 1342 1028 
23 1916 903 
24 936 474 
25 1003 100 
26 127 36 
27 987 1010 
28 1587 91 
29 798 1404 
30 807 977 
31 358 1324 
32 817 1389 
33 1991 1865 
34 1684 1370 
35 100 92 
36 1363 102 
37 435 637 
38 1117 458 
39 449 1265 
40 1402 1343 
41 878 353 
42 1730 758 
43 1855 1176 
44 53 1125 
45 1525 1798 
46 233 1253 
47 897 171 
48 474 1932 
EOF
